c # BDD stored by the DDDMP tool in CNF format
c #
c # Warning: AUX IDs missing ... equal to BDD IDs.
c #
c .ver DDDMP-2.0
c .nnodes 35
c .nvars 150
c .nsuppvars 15
c .suppvarnames V3 V8 V23 V24 V37 V39 DUMMY21 DUMMY22 DUMMY23 DUMMY36 DUMMY37 DUMMY38 DUMMY47 DUMMY48 DUMMY49
c .orderedvarnames V2 V3 V8 V9 V10 V12 V22 V23 V24 V37 V38 V39 V48 V49 V50 DUMMY15 DUMMY16 DUMMY17 DUMMY18 DUMMY19 DUMMY20 DUMMY21 DUMMY22 DUMMY23 DUMMY24 DUMMY25 DUMMY26 DUMMY27 DUMMY28 DUMMY29 DUMMY30 DUMMY31 DUMMY32 DUMMY33 DUMMY34 DUMMY35 DUMMY36 DUMMY37 DUMMY38 DUMMY39 DUMMY40 DUMMY41 DUMMY42 DUMMY43 DUMMY44 DUMMY45 DUMMY46 DUMMY47 DUMMY48 DUMMY49 DUMMY50 DUMMY51 DUMMY52 DUMMY53 DUMMY54 DUMMY55 DUMMY56 DUMMY57 DUMMY58 DUMMY59 DUMMY60 DUMMY61 DUMMY62 DUMMY63 DUMMY64 DUMMY65 DUMMY66 DUMMY67 DUMMY68 DUMMY69 DUMMY70 DUMMY71 DUMMY72 DUMMY73 DUMMY74 DUMMY75 DUMMY76 DUMMY77 DUMMY78 DUMMY79 DUMMY80 DUMMY81 DUMMY82 DUMMY83 DUMMY84 DUMMY85 DUMMY86 DUMMY87 DUMMY88 DUMMY89 DUMMY90 DUMMY91 DUMMY92 DUMMY93 DUMMY94 DUMMY95 DUMMY96 DUMMY97 DUMMY98 DUMMY99 DUMMY100 DUMMY101 DUMMY102 DUMMY103 DUMMY104 DUMMY105 DUMMY106 DUMMY107 DUMMY108 DUMMY109 DUMMY110 DUMMY111 DUMMY112 DUMMY113 DUMMY114 DUMMY115 DUMMY116 DUMMY117 DUMMY118 DUMMY119 DUMMY120 DUMMY121 DUMMY122 DUMMY123 DUMMY124 DUMMY125 DUMMY126 DUMMY127 DUMMY128 DUMMY129 DUMMY130 DUMMY131 DUMMY132 DUMMY133 DUMMY134 DUMMY135 DUMMY136 DUMMY137 DUMMY138 DUMMY139 DUMMY140 DUMMY141 DUMMY142 DUMMY143 DUMMY144 DUMMY145 DUMMY146 DUMMY147 DUMMY148 DUMMY149
c .ids  1 2 7 8 9 11 21 22 23 36 37 38 47 48 49
c .permids  1 2 7 8 9 11 21 22 23 36 37 38 47 48 49
c .auxids  1 2 7 8 9 11 21 22 23 36 37 38 47 48 49
c .cnfids  2 3 8 9 10 12 22 23 24 37 38 39 48 49 50
c .nroots 1
c .rootids 1         
c .nAddedCnfVar 31
c #
c # Init CNF Clauses
c #
p cnf 130 108              
100 -49 0
100 -50 0
-100 49 50 0
101 48 0
101 -100 0
-101 -48 100 0
102 48 0
102 -50 0
-102 -48 50 0
103 39 102 0
-103 39 -102 0
103 -39 -48 0
-103 -39 48 0
104 48 0
104 -49 0
-104 -48 49 0
105 39 -101 0
-105 39 101 0
105 -39 -104 0
-105 -39 104 0
106 38 105 0
-106 38 -105 0
106 -38 -103 0
-106 -38 103 0
107 -37 0
107 106 0
-107 37 -106 0
108 38 104 0
-108 38 -104 0
108 -38 -48 0
-108 -38 48 0
109 -37 0
109 108 0
-109 37 -108 0
110 24 -109 0
-110 24 109 0
110 -24 -107 0
-110 -24 107 0
111 -37 0
111 103 0
-111 37 -103 0
112 -37 0
112 48 0
-112 37 -48 0
113 24 -112 0
-113 24 112 0
113 -24 -111 0
-113 -24 111 0
114 23 -113 0
-114 23 113 0
114 -23 -110 0
-114 -23 110 0
115 22 0
115 -114 0
-115 -22 114 0
116 23 -112 0
-116 23 112 0
116 -23 -109 0
-116 -23 109 0
117 22 0
117 -116 0
-117 -22 116 0
118 12 -117 0
-118 12 117 0
118 -12 -115 0
-118 -12 115 0
119 10 0
119 -118 0
-119 -10 118 0
120 22 0
120 -113 0
-120 -22 113 0
121 12 -120 0
-121 12 120 0
121 -12 -115 0
-121 -12 115 0
122 10 0
122 -121 0
-122 -10 121 0
123 9 -122 0
-123 9 122 0
123 -9 -119 0
-123 -9 119 0
124 12 0
124 -115 0
-124 -12 115 0
125 10 0
125 -124 0
-125 -10 124 0
126 10 0
126 -115 0
-126 -10 115 0
127 9 -126 0
-127 9 126 0
127 -9 -125 0
-127 -9 125 0
128 8 -127 0
-128 8 127 0
128 -8 -123 0
-128 -8 123 0
129 3 -128 0
-129 3 128 0
129 -3 -101 0
-129 -3 101 0
130 -2 0
130 -129 0
-130 2 129 0
-130 0
c # End of Cnf From dddmp-2.0
